db/data/2887245471894424975890633943043631342.z3.out
sat
-------------------
262.545088107
